Cu   C    O    H                        
   1.00000000000000     
     5.1119999886000000    0.0000000000000000    0.0000000000000000
    -0.0000088492000000    5.1119999885000000    0.0000000000000000
    -0.0000266965000000   -0.0000266965000000   15.4221000671000006
   Cu   C    O    H 
    16     1     1     1
Selective dynamics
Direct
  0.0000300000000024  0.0013300000000029  0.1797900050000009   F   F   F
  0.0001956563197558  0.0001841732869777  0.4100295294158821   F   F   F
  0.2500000000000000  0.2500000000000000  0.0648399960000034   F   F   F
  0.2557252251121560  0.2477337213279676  0.3006621924979163   F   F   F
  0.5000100139999974  0.0004199999999983  0.1793099940000004   F   F   F
  0.4981287184518888 -0.0201473931833250  0.4195477071101268   F   F   F
  0.7500000000000000  0.2500000000000000  0.0648399960000034   F   F   F
  0.7419898947862138  0.2460793930357222  0.3005826344967449   F   F   F
  0.0000199999999992  0.4999800029999975  0.1809100059999971   F   F   F
 -0.0024948530749697  0.4998041778775755  0.4100417086320584   F   F   F
  0.2500000000000000  0.7500000000000000  0.0648399960000034   F   F   F
  0.2504341235690348  0.7483699365385323  0.2968053907378321   F   F   F
  0.5000200269999979  0.5008000139999992  0.1798200010000031   F   F   F
  0.5019509341958380  0.4983401842761561  0.4186998230102951   F   F   F
  0.7500000000000000  0.7500000000000000  0.0648399960000034   F   F   F
  0.7488859483777369  0.7482942596254994  0.2965434228731531   F   F   F
  0.4980851736844573  0.7144224243933777  0.5279429855509776   T   T   T
  0.5428416244477695  0.8814344028749472  0.5825630928167531   T   T   T
  0.4355059182690222  0.5107813680173430  0.5519668182453610   T   T   T
